
===== New CPLEX run =====
Instance: /home/yorig/tuner/mpils-tests/instances/miplib/medium-1/momentum1.mps
Config: /scratch/yorig/mpils-results-grid-ticks-10000/medium-1/16proc/seed-5/6_momentum1_seed-5_20260425_215516/iterated_local_search/run_2_worker_6/ils_config_15972441182199439141.prm
========================

Selected objective sense:  MINIMIZE
Selected objective  name:  MINIMIZE
Selected RHS        name:  rhs
Selected bound      name:  bnd
Version identifier: 22.1.2.0 | 2024-11-26 | 0edbb82fd
CPXPARAM_Threads                                 8
CPXPARAM_Parallel                                1
CPXPARAM_MIP_Cuts_FlowCovers                     -1
CPXPARAM_MIP_Limits_GomoryCand                   100
CPXPARAM_MIP_Cuts_Gomory                         -1
CPXPARAM_MIP_Cuts_MIRCut                         2
CPXPARAM_MIP_Cuts_Disjunctive                    2
CPXPARAM_MIP_Strategy_Dive                       3
CPXPARAM_DetTimeLimit                            10000
Tried aggregator 3 times.
MIP Presolve eliminated 30810 rows and 1362 columns.
MIP Presolve modified 22293 coefficients.
Aggregator did 232 substitutions.
Reduced MIP has 11638 rows, 3580 columns, and 46688 nonzeros.
Reduced MIP has 1625 binaries, 0 generals, 0 SOSs, and 0 indicators.
Presolve time = 0.10 sec. (139.58 ticks)
Found incumbent of value 533875.101733 after 0.12 sec. (154.72 ticks)
Probing fixed 392 vars, tightened 1078 bounds.
Probing changed sense of 113 constraints.
Probing time = 0.08 sec. (90.30 ticks)
Cover probing fixed 0 vars, tightened 267 bounds.
Tried aggregator 2 times.
MIP Presolve eliminated 3295 rows and 847 columns.
MIP Presolve modified 7082 coefficients.
Aggregator did 11 substitutions.
Reduced MIP has 8332 rows, 2722 columns, and 31418 nonzeros.
Reduced MIP has 1168 binaries, 0 generals, 0 SOSs, and 0 indicators.
Presolve time = 0.04 sec. (44.43 ticks)
Probing fixed 1 vars, tightened 256 bounds.
Probing time = 0.05 sec. (44.20 ticks)
Cover probing fixed 0 vars, tightened 190 bounds.
Tried aggregator 1 time.
Detecting symmetries...
MIP Presolve eliminated 26 rows and 2 columns.
MIP Presolve modified 5059 coefficients.
Reduced MIP has 8306 rows, 2720 columns, and 31355 nonzeros.
Reduced MIP has 1167 binaries, 0 generals, 0 SOSs, and 0 indicators.
Presolve time = 0.02 sec. (22.06 ticks)
Probing fixed 0 vars, tightened 90 bounds.
Probing time = 0.05 sec. (40.55 ticks)
Cover probing fixed 0 vars, tightened 69 bounds.
Clique table members: 18692.
MIP emphasis: balance optimality and feasibility.
MIP search method: dynamic search.
Parallel mode: deterministic, using up to 8 threads.
Root relaxation solution time = 0.12 sec. (144.31 ticks)

        Nodes                                         Cuts/
   Node  Left     Objective  IInf  Best Integer    Best Bound    ItCnt     Gap

*     0+    0                       533875.1017    44880.8652            91.59%
*     0+    0                       533847.9795    44880.8652            91.59%
*     0+    0                       333826.8649    44880.8652            86.56%
*     0+    0                       333809.0666    44880.8652            86.55%
      0     0    79213.0345   216   333809.0666    79213.0345     1531   76.27%
      0     0    83522.3131   255   333809.0666     Cuts: 145     2204   74.98%
      0     0    85830.6065   331   333809.0666      Cuts: 82     2630   74.29%
      0     0    89085.5233   346   333809.0666      Cuts: 94     3393   73.31%
*     0+    0                       320985.2647    89085.5233            72.25%
      0     0    93065.6476   267   320985.2647     Cuts: 149     4658   71.01%
      0     0    93076.7176   296   320985.2647      Cuts: 98     4844   71.00%
Detecting symmetries...
      0     0    94137.7034   298   320985.2647      Cuts: 70     5080   70.67%
      0     0    94146.3527   297   320985.2647      Cuts: 70     5271   70.67%
      0     0    96261.5087   313   320985.2647      Cuts: 68     5456   70.01%
      0     0    96262.0644   303   320985.2647      Cuts: 22     5527   70.01%
      0     0    96264.5576   312   320985.2647       Cuts: 8     5681   70.01%
*     0+    0                       314559.8892    96264.5576            69.40%
      0     0    96270.0811   275   314559.8892      Cuts: 30     5994   69.40%
      0     0    96270.6510   288   314559.8892      Cuts: 32     6058   69.40%
*     0+    0                       308113.0655    96270.6510            68.75%
      0     0  -1.00000e+75     0   308113.0655    96270.6510     6058   68.75%
Detecting symmetries...
      0     2    96270.6510   288   308113.0655    96270.6510     6058   68.75%
Elapsed time = 3.93 sec. (6388.81 ticks, tree = 0.02 MB, solutions = 7)
      2     4    96354.9172   263   308113.0655    96270.8779     7106   68.75%
     10     9    96385.8427   219   308113.0655    96270.8779     7711   68.75%
     32    28   102784.4982   165   308113.0655    96270.8779    12003   68.75%
*    47+    1                       301700.9064    96270.8779            68.09%
     60    55    97237.0024   272   301700.9064    96272.1348    17209   68.09%
     88    64   109784.9229   232   301700.9064    96272.5267    19871   68.09%
    117   104    98389.1264   258   301700.9064    96272.5267    27322   68.09%
    148   119   100713.1415   224   301700.9064    96272.5267    30413   68.09%
    175   118   109665.3697   217   301700.9064    96272.5267    30315   68.09%
    220   173   115568.5586   139   301700.9064    96272.5267    41154   68.09%
    344   308    96457.9242   216   301700.9064    96272.5267    61715   68.09%
Elapsed time = 5.90 sec. (9637.03 ticks, tree = 0.48 MB, solutions = 8)

Clique cuts applied:  16
Implied bound cuts applied:  19
Mixed integer rounding cuts applied:  137
Zero-half cuts applied:  80
Disjunctive cuts applied:  0
Cone linearizations applied:  0

Root node processing (before b&c):
  Real time             =    3.85 sec. (6291.25 ticks)
Parallel b&c, 8 threads:
  Real time             =    2.26 sec. (3731.98 ticks)
  Sync time (average)   =    0.39 sec.
  Wait time (average)   =    0.00 sec.
                          ------------
Total (root+branch&cut) =    6.12 sec. (10023.23 ticks)
Gap: 68.09%
Upper bound: 301701
Lower bound: 96272.5
End of CPLEX run. Time: 6.11785 seconds

===== New CPLEX run =====
Instance: /home/yorig/tuner/mpils-tests/instances/miplib/medium-1/momentum1.mps
Config: /scratch/yorig/mpils-results-grid-ticks-10000/medium-1/16proc/seed-5/6_momentum1_seed-5_20260425_215516/iterated_local_search/run_2_worker_6/ils_config_16423568520251250748.prm
========================

Selected objective sense:  MINIMIZE
Selected objective  name:  MINIMIZE
Selected RHS        name:  rhs
Selected bound      name:  bnd
Version identifier: 22.1.2.0 | 2024-11-26 | 0edbb82fd
CPXPARAM_Threads                                 8
CPXPARAM_Parallel                                1
CPXPARAM_MIP_Cuts_FlowCovers                     -1
CPXPARAM_MIP_Limits_GomoryCand                   100
CPXPARAM_MIP_Cuts_Gomory                         -1
CPXPARAM_MIP_Cuts_Disjunctive                    2
CPXPARAM_MIP_Strategy_Dive                       3
CPXPARAM_DetTimeLimit                            10000
Tried aggregator 3 times.
MIP Presolve eliminated 30810 rows and 1362 columns.
MIP Presolve modified 22293 coefficients.
Aggregator did 232 substitutions.
Reduced MIP has 11638 rows, 3580 columns, and 46688 nonzeros.
Reduced MIP has 1625 binaries, 0 generals, 0 SOSs, and 0 indicators.
Presolve time = 0.10 sec. (139.58 ticks)
Found incumbent of value 533875.101733 after 0.12 sec. (154.72 ticks)
Probing fixed 392 vars, tightened 1078 bounds.
Probing changed sense of 113 constraints.
Probing time = 0.08 sec. (90.30 ticks)
Cover probing fixed 0 vars, tightened 267 bounds.
Tried aggregator 2 times.
MIP Presolve eliminated 3295 rows and 847 columns.
MIP Presolve modified 7082 coefficients.
Aggregator did 11 substitutions.
Reduced MIP has 8332 rows, 2722 columns, and 31418 nonzeros.
Reduced MIP has 1168 binaries, 0 generals, 0 SOSs, and 0 indicators.
Presolve time = 0.04 sec. (44.43 ticks)
Probing fixed 1 vars, tightened 256 bounds.
Probing time = 0.05 sec. (44.20 ticks)
Cover probing fixed 0 vars, tightened 190 bounds.
Tried aggregator 1 time.
Detecting symmetries...
MIP Presolve eliminated 26 rows and 2 columns.
MIP Presolve modified 5059 coefficients.
Reduced MIP has 8306 rows, 2720 columns, and 31355 nonzeros.
Reduced MIP has 1167 binaries, 0 generals, 0 SOSs, and 0 indicators.
Presolve time = 0.02 sec. (22.06 ticks)
Probing fixed 0 vars, tightened 90 bounds.
Probing time = 0.05 sec. (40.55 ticks)
Cover probing fixed 0 vars, tightened 69 bounds.
Clique table members: 18692.
MIP emphasis: balance optimality and feasibility.
MIP search method: dynamic search.
Parallel mode: deterministic, using up to 8 threads.
Root relaxation solution time = 0.11 sec. (144.31 ticks)

        Nodes                                         Cuts/
   Node  Left     Objective  IInf  Best Integer    Best Bound    ItCnt     Gap

*     0+    0                       533875.1017    44880.8652            91.59%
*     0+    0                       533847.9795    44880.8652            91.59%
*     0+    0                       333826.8649    44880.8652            86.56%
*     0+    0                       333809.0666    44880.8652            86.55%
      0     0    79213.0345   216   333809.0666    79213.0345     1531   76.27%
      0     0    83517.4629   255   333809.0666     Cuts: 161     2075   74.98%
      0     0    87781.4070   292   333809.0666      Cuts: 78     2883   73.70%
      0     0    90233.3498   256   333809.0666      Cuts: 86     3515   72.97%
*     0+    0                       320985.0088    90233.3498            71.89%
      0     0  -1.00000e+75     0   320985.0088    90233.3498     3515   71.89%
      0     0    93092.2933   291   320985.0088      Cuts: 85     3818   71.00%
      0     0    93547.5244   279   320985.0088      Cuts: 50     3956   70.86%
Detecting symmetries...
      0     0    96277.1165   297   320985.0088      Cuts: 43     4157   70.01%
      0     0    96278.1131   277   320985.0088      Cuts: 25     4235   70.01%
      0     0    96278.4964   283   320985.0088      Cuts: 11     4288   70.01%
      0     0    96280.5922   277   320985.0088      Cuts: 10     4368   70.00%
*     0+    0                       320972.7834    96280.5922            70.00%
*     0+    0                       314560.3642    96280.5922            69.39%
      0     0  -1.00000e+75     0   314560.3642    96280.5922     4368   69.39%
Detecting symmetries...
      0     2    96280.5922   277   314560.3642    96280.5922     4368   69.39%
Elapsed time = 3.49 sec. (5800.82 ticks, tree = 0.02 MB, solutions = 7)
     17    13    96366.0051   252   314560.3642    96297.2525     6033   69.39%
*    38+    4                       308110.8892    96297.2525            68.75%
     41     8    96311.0151   249   308110.8892    96301.7350     5410   68.74%
     61    51   102704.0678   210   308110.8892    96301.7350    11640   68.74%
    102    88    96405.8917   209   308110.8892    96301.7350    18225   68.74%
    131   109    97776.9260   277   308110.8892    96301.7350    21843   68.74%
    154   128   102901.3066   206   308110.8892    96301.7350    24396   68.74%
    173   159   102811.3605   172   308110.8892    96301.7350    31832   68.74%
    207   166   102729.1843   219   308110.8892    96301.7350    36200   68.74%
    256   193   115684.5045   139   308110.8892    96301.7350    38591   68.74%
    368   267   109207.5649   110   308110.8892    96301.7350    49702   68.74%
Elapsed time = 5.47 sec. (8962.22 ticks, tree = 0.92 MB, solutions = 10)
    475   351   128454.2666   113   308110.8892    96301.7350    66859   68.74%

Clique cuts applied:  10
Implied bound cuts applied:  7
Mixed integer rounding cuts applied:  62
Zero-half cuts applied:  43
Disjunctive cuts applied:  0
Cone linearizations applied:  0

Root node processing (before b&c):
  Real time             =    3.44 sec. (5741.68 ticks)
Parallel b&c, 8 threads:
  Real time             =    2.64 sec. (4269.83 ticks)
  Sync time (average)   =    0.27 sec.
  Wait time (average)   =    0.00 sec.
                          ------------
Total (root+branch&cut) =    6.08 sec. (10011.51 ticks)
Gap: 68.74%
Upper bound: 308111
Lower bound: 96301.7
End of CPLEX run. Time: 6.08724 seconds

===== New CPLEX run =====
Instance: /home/yorig/tuner/mpils-tests/instances/miplib/medium-1/momentum1.mps
Config: /scratch/yorig/mpils-results-grid-ticks-10000/medium-1/16proc/seed-5/6_momentum1_seed-5_20260425_215516/iterated_local_search/run_2_worker_6/ils_config_1868932945247672471.prm
========================

Selected objective sense:  MINIMIZE
Selected objective  name:  MINIMIZE
Selected RHS        name:  rhs
Selected bound      name:  bnd
Version identifier: 22.1.2.0 | 2024-11-26 | 0edbb82fd
CPXPARAM_Threads                                 8
CPXPARAM_Parallel                                1
CPXPARAM_MIP_Cuts_FlowCovers                     -1
CPXPARAM_MIP_Limits_GomoryCand                   100
CPXPARAM_MIP_Cuts_Gomory                         -1
CPXPARAM_MIP_Cuts_MIRCut                         2
CPXPARAM_MIP_Strategy_Dive                       3
CPXPARAM_DetTimeLimit                            10000
Tried aggregator 3 times.
MIP Presolve eliminated 30810 rows and 1362 columns.
MIP Presolve modified 22293 coefficients.
Aggregator did 232 substitutions.
Reduced MIP has 11638 rows, 3580 columns, and 46688 nonzeros.
Reduced MIP has 1625 binaries, 0 generals, 0 SOSs, and 0 indicators.
Presolve time = 0.11 sec. (139.58 ticks)
Found incumbent of value 533875.101733 after 0.13 sec. (154.72 ticks)
Probing fixed 392 vars, tightened 1078 bounds.
Probing changed sense of 113 constraints.
Probing time = 0.09 sec. (90.30 ticks)
Cover probing fixed 0 vars, tightened 267 bounds.
Tried aggregator 2 times.
MIP Presolve eliminated 3295 rows and 847 columns.
MIP Presolve modified 7082 coefficients.
Aggregator did 11 substitutions.
Reduced MIP has 8332 rows, 2722 columns, and 31418 nonzeros.
Reduced MIP has 1168 binaries, 0 generals, 0 SOSs, and 0 indicators.
Presolve time = 0.04 sec. (44.43 ticks)
Probing fixed 1 vars, tightened 256 bounds.
Probing time = 0.04 sec. (44.20 ticks)
Cover probing fixed 0 vars, tightened 190 bounds.
Tried aggregator 1 time.
Detecting symmetries...
MIP Presolve eliminated 26 rows and 2 columns.
MIP Presolve modified 5059 coefficients.
Reduced MIP has 8306 rows, 2720 columns, and 31355 nonzeros.
Reduced MIP has 1167 binaries, 0 generals, 0 SOSs, and 0 indicators.
Presolve time = 0.02 sec. (22.06 ticks)
Probing fixed 0 vars, tightened 90 bounds.
Probing time = 0.05 sec. (40.55 ticks)
Cover probing fixed 0 vars, tightened 69 bounds.
Clique table members: 18692.
MIP emphasis: balance optimality and feasibility.
MIP search method: dynamic search.
Parallel mode: deterministic, using up to 8 threads.
Root relaxation solution time = 0.11 sec. (144.31 ticks)

        Nodes                                         Cuts/
   Node  Left     Objective  IInf  Best Integer    Best Bound    ItCnt     Gap

*     0+    0                       533875.1017    44880.8652            91.59%
*     0+    0                       533847.9795    44880.8652            91.59%
*     0+    0                       333826.8649    44880.8652            86.56%
*     0+    0                       333809.0666    44880.8652            86.55%
      0     0    79213.0345   216   333809.0666    79213.0345     1531   76.27%
      0     0    83522.3131   255   333809.0666     Cuts: 145     2204   74.98%
      0     0    85830.6065   331   333809.0666      Cuts: 82     2630   74.29%
      0     0    89085.5233   346   333809.0666      Cuts: 94     3393   73.31%
*     0+    0                       320985.2647    89085.5233            72.25%
      0     0    93065.6476   267   320985.2647     Cuts: 149     4658   71.01%
      0     0    93076.7176   296   320985.2647      Cuts: 98     4844   71.00%
Detecting symmetries...
      0     0    94137.7034   298   320985.2647      Cuts: 70     5080   70.67%
      0     0    94146.3527   297   320985.2647      Cuts: 70     5271   70.67%
      0     0    96261.5087   313   320985.2647      Cuts: 68     5456   70.01%
      0     0    96262.0644   303   320985.2647      Cuts: 22     5527   70.01%
      0     0    96264.5576   312   320985.2647       Cuts: 8     5681   70.01%
*     0+    0                       314559.8892    96264.5576            69.40%
      0     0    96270.0811   275   314559.8892      Cuts: 30     5994   69.40%
      0     0    96270.6510   288   314559.8892      Cuts: 32     6058   69.40%
*     0+    0                       308113.0655    96270.6510            68.75%
      0     0  -1.00000e+75     0   308113.0655    96270.6510     6058   68.75%
Detecting symmetries...
      0     2    96270.6510   288   308113.0655    96270.6510     6058   68.75%
Elapsed time = 3.92 sec. (6388.81 ticks, tree = 0.02 MB, solutions = 7)
      2     4    96354.9172   263   308113.0655    96270.8779     7106   68.75%
     10     9    96385.8427   219   308113.0655    96270.8779     7711   68.75%
     32    28   102784.4982   165   308113.0655    96270.8779    12003   68.75%
*    47+    1                       301700.9064    96270.8779            68.09%
     60    55    97237.0024   272   301700.9064    96272.1348    17209   68.09%
     88    64   109784.9229   232   301700.9064    96272.5267    19871   68.09%
    117   104    98389.1264   258   301700.9064    96272.5267    27322   68.09%
    148   119   100713.1415   224   301700.9064    96272.5267    30413   68.09%
    175   118   109665.3697   217   301700.9064    96272.5267    30315   68.09%
    220   173   115568.5586   139   301700.9064    96272.5267    41154   68.09%
    344   308    96457.9242   216   301700.9064    96272.5267    61715   68.09%
Elapsed time = 5.94 sec. (9637.03 ticks, tree = 0.48 MB, solutions = 8)

Clique cuts applied:  16
Implied bound cuts applied:  19
Mixed integer rounding cuts applied:  137
Zero-half cuts applied:  80

Root node processing (before b&c):
  Real time             =    3.84 sec. (6291.25 ticks)
Parallel b&c, 8 threads:
  Real time             =    2.33 sec. (3731.98 ticks)
  Sync time (average)   =    0.39 sec.
  Wait time (average)   =    0.00 sec.
                          ------------
Total (root+branch&cut) =    6.17 sec. (10023.23 ticks)
Gap: 68.09%
Upper bound: 301701
Lower bound: 96272.5
End of CPLEX run. Time: 6.17609 seconds

===== New CPLEX run =====
Instance: /home/yorig/tuner/mpils-tests/instances/miplib/medium-1/momentum1.mps
Config: /scratch/yorig/mpils-results-grid-ticks-10000/medium-1/16proc/seed-5/6_momentum1_seed-5_20260425_215516/iterated_local_search/run_2_worker_6/ils_config_16258078766087543424.prm
========================

Selected objective sense:  MINIMIZE
Selected objective  name:  MINIMIZE
Selected RHS        name:  rhs
Selected bound      name:  bnd
Version identifier: 22.1.2.0 | 2024-11-26 | 0edbb82fd
CPXPARAM_Threads                                 8
CPXPARAM_Parallel                                1
CPXPARAM_MIP_Strategy_Branch                     1
CPXPARAM_MIP_Cuts_FlowCovers                     -1
CPXPARAM_MIP_Limits_GomoryCand                   100
CPXPARAM_MIP_Cuts_Gomory                         -1
CPXPARAM_MIP_Cuts_MIRCut                         2
CPXPARAM_MIP_Cuts_Disjunctive                    2
CPXPARAM_MIP_Strategy_Dive                       3
CPXPARAM_DetTimeLimit                            10000
Tried aggregator 3 times.
MIP Presolve eliminated 30810 rows and 1362 columns.
MIP Presolve modified 22293 coefficients.
Aggregator did 232 substitutions.
Reduced MIP has 11638 rows, 3580 columns, and 46688 nonzeros.
Reduced MIP has 1625 binaries, 0 generals, 0 SOSs, and 0 indicators.
Presolve time = 0.11 sec. (139.58 ticks)
Found incumbent of value 533875.101733 after 0.13 sec. (154.72 ticks)
Probing fixed 392 vars, tightened 1078 bounds.
Probing changed sense of 113 constraints.
Probing time = 0.09 sec. (90.30 ticks)
Cover probing fixed 0 vars, tightened 267 bounds.
Tried aggregator 2 times.
MIP Presolve eliminated 3295 rows and 847 columns.
MIP Presolve modified 7082 coefficients.
Aggregator did 11 substitutions.
Reduced MIP has 8332 rows, 2722 columns, and 31418 nonzeros.
Reduced MIP has 1168 binaries, 0 generals, 0 SOSs, and 0 indicators.
Presolve time = 0.04 sec. (44.43 ticks)
Probing fixed 1 vars, tightened 256 bounds.
Probing time = 0.05 sec. (44.20 ticks)
Cover probing fixed 0 vars, tightened 190 bounds.
Tried aggregator 1 time.
Detecting symmetries...
MIP Presolve eliminated 26 rows and 2 columns.
MIP Presolve modified 5059 coefficients.
Reduced MIP has 8306 rows, 2720 columns, and 31355 nonzeros.
Reduced MIP has 1167 binaries, 0 generals, 0 SOSs, and 0 indicators.
Presolve time = 0.02 sec. (22.06 ticks)
Probing fixed 0 vars, tightened 90 bounds.
Probing time = 0.05 sec. (40.55 ticks)
Cover probing fixed 0 vars, tightened 69 bounds.
Clique table members: 18692.
MIP emphasis: balance optimality and feasibility.
MIP search method: dynamic search.
Parallel mode: deterministic, using up to 8 threads.
Root relaxation solution time = 0.12 sec. (144.31 ticks)

        Nodes                                         Cuts/
   Node  Left     Objective  IInf  Best Integer    Best Bound    ItCnt     Gap

*     0+    0                       533875.1017    44880.8652            91.59%
*     0+    0                       533847.9795    44880.8652            91.59%
*     0+    0                       333826.8649    44880.8652            86.56%
*     0+    0                       333809.0666    44880.8652            86.55%
      0     0    79213.0345   216   333809.0666    79213.0345     1531   76.27%
      0     0    83522.3131   255   333809.0666     Cuts: 145     2204   74.98%
      0     0    85830.6065   331   333809.0666      Cuts: 82     2630   74.29%
      0     0    89085.5233   346   333809.0666      Cuts: 94     3393   73.31%
*     0+    0                       320985.2647    89085.5233            72.25%
      0     0    93065.6476   267   320985.2647     Cuts: 149     4658   71.01%
      0     0    93076.7176   296   320985.2647      Cuts: 98     4844   71.00%
Detecting symmetries...
      0     0    94137.7034   298   320985.2647      Cuts: 70     5080   70.67%
      0     0    94146.3527   297   320985.2647      Cuts: 70     5271   70.67%
      0     0    96261.5087   313   320985.2647      Cuts: 68     5456   70.01%
      0     0    96262.0644   303   320985.2647      Cuts: 22     5527   70.01%
      0     0    96264.5576   312   320985.2647       Cuts: 8     5681   70.01%
*     0+    0                       314559.8892    96264.5576            69.40%
      0     0    96270.0811   275   314559.8892      Cuts: 30     5994   69.40%
      0     0    96270.6510   288   314559.8892      Cuts: 32     6058   69.40%
*     0+    0                       308113.0655    96270.6510            68.75%
      0     0  -1.00000e+75     0   308113.0655    96270.6510     6058   68.75%
Detecting symmetries...
      0     2    96270.6510   288   308113.0655    96270.6510     6058   68.75%
Elapsed time = 3.93 sec. (6388.81 ticks, tree = 0.02 MB, solutions = 7)
      3     5    96371.4124   258   308113.0655    96270.8779     7054   68.75%
     12    14    96521.6996   233   308113.0655    96270.8779     8638   68.75%
     28    17   119201.3502   178   308113.0655    96270.8779    10047   68.75%
*    38+    1                       301700.9064    96270.8779            68.09%
     52    34   121829.5796   143   301700.9064    96272.1348    15667   68.09%
     72    50   128354.7491   114   301700.9064    96272.1348    20533   68.09%
     85    60   115477.6043   154   301700.9064    96272.1348    24201   68.09%
     98    46        cutoff         301700.9064    96272.1348    20252   68.09%
    124    67   102878.3237   195   301700.9064    96272.1348    33318   68.09%
    171    74   121951.7758   103   301700.9064    96272.1348    38577   68.09%
    232   124   122663.1322   209   301700.9064    96272.1348    60823   68.09%
Elapsed time = 6.03 sec. (9611.48 ticks, tree = 0.54 MB, solutions = 8)

Clique cuts applied:  16
Implied bound cuts applied:  21
Mixed integer rounding cuts applied:  234
Zero-half cuts applied:  80
Disjunctive cuts applied:  0
Cone linearizations applied:  0

Root node processing (before b&c):
  Real time             =    3.85 sec. (6291.26 ticks)
Parallel b&c, 8 threads:
  Real time             =    2.43 sec. (3715.49 ticks)
  Sync time (average)   =    0.46 sec.
  Wait time (average)   =    0.00 sec.
                          ------------
Total (root+branch&cut) =    6.28 sec. (10006.75 ticks)
Gap: 68.09%
Upper bound: 301701
Lower bound: 96272.1
End of CPLEX run. Time: 6.28654 seconds

===== New CPLEX run =====
Instance: /home/yorig/tuner/mpils-tests/instances/miplib/medium-1/momentum1.mps
Config: /scratch/yorig/mpils-results-grid-ticks-10000/medium-1/16proc/seed-5/6_momentum1_seed-5_20260425_215516/iterated_local_search/run_2_worker_6/ils_config_9895773412700358319.prm
========================

Selected objective sense:  MINIMIZE
Selected objective  name:  MINIMIZE
Selected RHS        name:  rhs
Selected bound      name:  bnd
Version identifier: 22.1.2.0 | 2024-11-26 | 0edbb82fd
CPXPARAM_Threads                                 8
CPXPARAM_Parallel                                1
CPXPARAM_MIP_Cuts_FlowCovers                     -1
CPXPARAM_MIP_Limits_GomoryCand                   100
CPXPARAM_MIP_Cuts_Gomory                         -1
CPXPARAM_MIP_Cuts_MIRCut                         2
CPXPARAM_MIP_Cuts_Disjunctive                    3
CPXPARAM_MIP_Strategy_Dive                       3
CPXPARAM_DetTimeLimit                            10000
Tried aggregator 3 times.
MIP Presolve eliminated 30810 rows and 1362 columns.
MIP Presolve modified 22293 coefficients.
Aggregator did 232 substitutions.
Reduced MIP has 11638 rows, 3580 columns, and 46688 nonzeros.
Reduced MIP has 1625 binaries, 0 generals, 0 SOSs, and 0 indicators.
Presolve time = 0.11 sec. (139.58 ticks)
Found incumbent of value 533875.101733 after 0.13 sec. (154.72 ticks)
Probing fixed 392 vars, tightened 1078 bounds.
Probing changed sense of 113 constraints.
Probing time = 0.09 sec. (90.30 ticks)
Cover probing fixed 0 vars, tightened 267 bounds.
Tried aggregator 2 times.
MIP Presolve eliminated 3295 rows and 847 columns.
MIP Presolve modified 7082 coefficients.
Aggregator did 11 substitutions.
Reduced MIP has 8332 rows, 2722 columns, and 31418 nonzeros.
Reduced MIP has 1168 binaries, 0 generals, 0 SOSs, and 0 indicators.
Presolve time = 0.04 sec. (44.43 ticks)
Probing fixed 1 vars, tightened 256 bounds.
Probing time = 0.05 sec. (44.20 ticks)
Cover probing fixed 0 vars, tightened 190 bounds.
Tried aggregator 1 time.
Detecting symmetries...
MIP Presolve eliminated 26 rows and 2 columns.
MIP Presolve modified 5059 coefficients.
Reduced MIP has 8306 rows, 2720 columns, and 31355 nonzeros.
Reduced MIP has 1167 binaries, 0 generals, 0 SOSs, and 0 indicators.
Presolve time = 0.02 sec. (22.06 ticks)
Probing fixed 0 vars, tightened 90 bounds.
Probing time = 0.05 sec. (40.55 ticks)
Cover probing fixed 0 vars, tightened 69 bounds.
Clique table members: 18692.
MIP emphasis: balance optimality and feasibility.
MIP search method: dynamic search.
Parallel mode: deterministic, using up to 8 threads.
Root relaxation solution time = 0.11 sec. (144.31 ticks)

        Nodes                                         Cuts/
   Node  Left     Objective  IInf  Best Integer    Best Bound    ItCnt     Gap

*     0+    0                       533875.1017    44880.8652            91.59%
*     0+    0                       533847.9795    44880.8652            91.59%
*     0+    0                       333826.8649    44880.8652            86.56%
*     0+    0                       333809.0666    44880.8652            86.55%
      0     0    79213.0345   216   333809.0666    79213.0345     1531   76.27%

Mixed integer rounding cuts applied:  0
Disjunctive cuts applied:  0
Cone linearizations applied:  0

Root node processing (before b&c):
  Real time             =    8.53 sec. (10051.01 ticks)
Parallel b&c, 8 threads:
  Real time             =    0.00 sec. (0.00 ticks)
  Sync time (average)   =    0.00 sec.
  Wait time (average)   =    0.00 sec.
                          ------------
Total (root+branch&cut) =    8.53 sec. (10051.01 ticks)
Gap: 76.27%
Upper bound: 333809
Lower bound: 79213
End of CPLEX run. Time: 8.53604 seconds

===== New CPLEX run =====
Instance: /home/yorig/tuner/mpils-tests/instances/miplib/medium-1/momentum1.mps
Config: /scratch/yorig/mpils-results-grid-ticks-10000/medium-1/16proc/seed-5/6_momentum1_seed-5_20260425_215516/iterated_local_search/run_2_worker_6/ils_config_7988829708919622792.prm
========================

Selected objective sense:  MINIMIZE
Selected objective  name:  MINIMIZE
Selected RHS        name:  rhs
Selected bound      name:  bnd
Version identifier: 22.1.2.0 | 2024-11-26 | 0edbb82fd
CPXPARAM_Threads                                 8
CPXPARAM_Parallel                                1
CPXPARAM_MIP_Cuts_FlowCovers                     -1
CPXPARAM_MIP_Limits_GomoryCand                   100
CPXPARAM_MIP_Cuts_Gomory                         -1
CPXPARAM_MIP_Cuts_MIRCut                         -1
CPXPARAM_MIP_Cuts_Disjunctive                    2
CPXPARAM_MIP_Strategy_Dive                       3
CPXPARAM_DetTimeLimit                            10000
Tried aggregator 3 times.
MIP Presolve eliminated 30810 rows and 1362 columns.
MIP Presolve modified 22293 coefficients.
Aggregator did 232 substitutions.
Reduced MIP has 11638 rows, 3580 columns, and 46688 nonzeros.
Reduced MIP has 1625 binaries, 0 generals, 0 SOSs, and 0 indicators.
Presolve time = 0.10 sec. (139.58 ticks)
Found incumbent of value 533875.101733 after 0.12 sec. (154.72 ticks)
Probing fixed 392 vars, tightened 1078 bounds.
Probing changed sense of 113 constraints.
Probing time = 0.08 sec. (90.30 ticks)
Cover probing fixed 0 vars, tightened 267 bounds.
Tried aggregator 2 times.
MIP Presolve eliminated 3295 rows and 847 columns.
MIP Presolve modified 7082 coefficients.
Aggregator did 11 substitutions.
Reduced MIP has 8332 rows, 2722 columns, and 31418 nonzeros.
Reduced MIP has 1168 binaries, 0 generals, 0 SOSs, and 0 indicators.
Presolve time = 0.04 sec. (44.43 ticks)
Probing fixed 1 vars, tightened 256 bounds.
Probing time = 0.05 sec. (44.20 ticks)
Cover probing fixed 0 vars, tightened 190 bounds.
Tried aggregator 1 time.
Detecting symmetries...
MIP Presolve eliminated 26 rows and 2 columns.
MIP Presolve modified 5059 coefficients.
Reduced MIP has 8306 rows, 2720 columns, and 31355 nonzeros.
Reduced MIP has 1167 binaries, 0 generals, 0 SOSs, and 0 indicators.
Presolve time = 0.02 sec. (22.06 ticks)
Probing fixed 0 vars, tightened 90 bounds.
Probing time = 0.04 sec. (40.55 ticks)
Cover probing fixed 0 vars, tightened 69 bounds.
Clique table members: 18692.
MIP emphasis: balance optimality and feasibility.
MIP search method: dynamic search.
Parallel mode: deterministic, using up to 8 threads.
Root relaxation solution time = 0.11 sec. (144.31 ticks)

        Nodes                                         Cuts/
   Node  Left     Objective  IInf  Best Integer    Best Bound    ItCnt     Gap

*     0+    0                       533875.1017    44880.8652            91.59%
*     0+    0                       533847.9795    44880.8652            91.59%
*     0+    0                       333826.8649    44880.8652            86.56%
*     0+    0                       333809.0666    44880.8652            86.55%
      0     0    79213.0345   216   333809.0666    79213.0345     1531   76.27%
      0     0    83508.1147   249   333809.0666     Cuts: 104     1943   74.98%
      0     0    89346.2741   254   333809.0666      Cuts: 44     2493   73.23%
      0     0    91802.8166   274   333809.0666      Cuts: 47     2773   72.50%
*     0+    0                       327396.9095    91802.8166            71.96%
      0     0  -1.00000e+75     0   327396.9095    91802.8166     2773   71.96%
      0     0    91804.6681   278   327396.9095      Cuts: 48     2838   71.96%
*     0+    0                       320983.9863    91804.6681            71.40%
      0     0    91808.8965   302   320983.9863      Cuts: 30     2920   71.40%
Detecting symmetries...
*     0+    0                       320983.9861    96254.0420            70.01%
      0     0  -1.00000e+75     0   320983.9861    96254.0420     2920   70.01%
Detecting symmetries...
      0     2    91808.8965   302   320983.9861    96254.0420     2920   70.01%
Elapsed time = 2.74 sec. (4030.43 ticks, tree = 0.02 MB, solutions = 7)
     16    14    93721.9595   176   320983.9861    96254.0420     4922   70.01%
     39    30   102714.5529   164   320983.9861    96254.0420     7208   70.01%
*    66+    6                       314570.8966    96254.0420            69.40%
     68    61    96468.0769   230   314570.8966    96254.0420    11029   69.40%
     89    76   106179.6322   173   314570.8966    96254.0420    13273   69.40%
    102    80   102744.7326   186   314570.8966    96254.0420    15659   69.40%
    130   108   109116.0872   159   314570.8966    96254.0420    25329   69.40%
    187   153   102745.4483   153   314570.8966    96254.0420    29416   69.40%
    248   181   109166.1514   146   314570.8966    96254.0420    33353   69.40%
    319   211    96308.6625   146   314570.8966    96254.0420    37797   69.40%
    537   403   115595.8258   139   314570.8966    96254.0420    57584   69.40%
Elapsed time = 4.74 sec. (7200.55 ticks, tree = 0.97 MB, solutions = 8)
*   552+  425                       314570.8963    96254.0420            69.40%
*   590+  457                       314570.8963    96254.0420            69.40%
    733   593   102825.8432   166   314570.8963    96254.0420    78480   69.40%
    871   710   103091.5094   171   314570.8963    96254.0420    89823   69.40%

Clique cuts applied:  14
Implied bound cuts applied:  8
Zero-half cuts applied:  61
Disjunctive cuts applied:  0
Cone linearizations applied:  0

Root node processing (before b&c):
  Real time             =    2.71 sec. (3997.61 ticks)
Parallel b&c, 8 threads:
  Real time             =    3.74 sec. (6005.72 ticks)
  Sync time (average)   =    0.41 sec.
  Wait time (average)   =    0.00 sec.
                          ------------
Total (root+branch&cut) =    6.45 sec. (10003.32 ticks)
Gap: 69.4%
Upper bound: 314571
Lower bound: 96254
End of CPLEX run. Time: 6.45067 seconds
